c Maximum weighted clique instances generated from exactcolors.
c cutoff: 3458105.
c A clique of value > scalef (3458105) defines an improving stable sets for coloring.
p edge 31 0
n 1 3458105
n 2 3458105
n 3 3458105
n 4 3458105
n 5 3458105
n 6 3458105
n 7 3458105
n 8 3458105
n 9 3458105
n 10 3458105
n 11 3458105
n 12 3458105
n 13 3458105
n 14 3458105
n 15 3458105
n 16 3458105
n 17 3458105
n 18 3458105
n 19 3458105
n 20 3458105
n 21 3458105
n 22 3458105
n 23 3458105
n 24 3458105
n 25 3458105
n 26 3458105
n 27 3458105
n 28 3458105
n 29 3458105
n 30 3458105
n 31 3458105
